tileset
64, 64
10, 10
2, 2, 2, 2, 2, 2, 2, 2, 2, 2, 4, 4, 4, 2, 2, 2, 2, 2, 2, 4, 4, 2, 4, 4, 2, 4, 2, 2, 2, 4, 4, 2, 2, 2, 2, 4, 4, 4, 2, 4, 4, 2, 2, 2, 2, 2, 2, 2, 2, 4, 4, 4, 2, 4, 2, 2, 2, 4, 4, 4, 2, 2, 2, 4, 2, 4, 2, 2, 4, 4, 4, 2, 2, 2, 2, 4, 2, 2, 2, 2, 2, 4, 4, 4, 4, 2, 2, 2, 2, 4, 4, 4, 2, 2, 4, 2, 4, 2, 2, 2